NAME : ca4663
COMMENT : 4663 locations in Canada
COMMENT : Derived from National Imagery and Mapping Agency data
TYPE : ATSP
DIMENSION : 3
EDGE_WEIGHT_TYPE : EXPLICIT
EDGE_WEIGHT_FORMAT : FULL_MATRIX
EDGE_WEIGHT_SECTION
0 5 5
5 0 6
5 5 0